p cnf 188 697
1 2 3 4 0
-1 -2 0
-1 -3 0
-1 -4 0
-2 -3 0
-2 -4 0
-3 -4 0
5 6 7 8 0
-5 -6 0
-5 -7 0
-5 -8 0
-6 -7 0
-6 -8 0
-7 -8 0
9 10 11 12 0
-9 -10 0
-9 -11 0
-9 -12 0
-10 -11 0
-10 -12 0
-11 -12 0
13 14 15 16 0
-13 -14 0
-13 -15 0
-13 -16 0
-14 -15 0
-14 -16 0
-15 -16 0
17 18 19 20 0
-17 -18 0
-17 -19 0
-17 -20 0
-18 -19 0
-18 -20 0
-19 -20 0
21 22 23 24 0
-21 -22 0
-21 -23 0
-21 -24 0
-22 -23 0
-22 -24 0
-23 -24 0
25 26 27 28 0
-25 -26 0
-25 -27 0
-25 -28 0
-26 -27 0
-26 -28 0
-27 -28 0
29 30 31 32 0
-29 -30 0
-29 -31 0
-29 -32 0
-30 -31 0
-30 -32 0
-31 -32 0
33 34 35 36 0
-33 -34 0
-33 -35 0
-33 -36 0
-34 -35 0
-34 -36 0
-35 -36 0
37 38 39 40 0
-37 -38 0
-37 -39 0
-37 -40 0
-38 -39 0
-38 -40 0
-39 -40 0
41 42 43 44 0
-41 -42 0
-41 -43 0
-41 -44 0
-42 -43 0
-42 -44 0
-43 -44 0
45 46 47 48 0
-45 -46 0
-45 -47 0
-45 -48 0
-46 -47 0
-46 -48 0
-47 -48 0
49 50 51 52 0
-49 -50 0
-49 -51 0
-49 -52 0
-50 -51 0
-50 -52 0
-51 -52 0
53 54 55 56 0
-53 -54 0
-53 -55 0
-53 -56 0
-54 -55 0
-54 -56 0
-55 -56 0
57 58 59 60 0
-57 -58 0
-57 -59 0
-57 -60 0
-58 -59 0
-58 -60 0
-59 -60 0
61 62 63 64 0
-61 -62 0
-61 -63 0
-61 -64 0
-62 -63 0
-62 -64 0
-63 -64 0
65 66 67 68 0
-65 -66 0
-65 -67 0
-65 -68 0
-66 -67 0
-66 -68 0
-67 -68 0
69 70 71 72 0
-69 -70 0
-69 -71 0
-69 -72 0
-70 -71 0
-70 -72 0
-71 -72 0
73 74 75 76 0
-73 -74 0
-73 -75 0
-73 -76 0
-74 -75 0
-74 -76 0
-75 -76 0
77 78 79 80 0
-77 -78 0
-77 -79 0
-77 -80 0
-78 -79 0
-78 -80 0
-79 -80 0
81 82 83 84 0
-81 -82 0
-81 -83 0
-81 -84 0
-82 -83 0
-82 -84 0
-83 -84 0
85 86 87 88 0
-85 -86 0
-85 -87 0
-85 -88 0
-86 -87 0
-86 -88 0
-87 -88 0
89 90 91 92 0
-89 -90 0
-89 -91 0
-89 -92 0
-90 -91 0
-90 -92 0
-91 -92 0
93 94 95 96 0
-93 -94 0
-93 -95 0
-93 -96 0
-94 -95 0
-94 -96 0
-95 -96 0
97 98 99 100 0
-97 -98 0
-97 -99 0
-97 -100 0
-98 -99 0
-98 -100 0
-99 -100 0
101 102 103 104 0
-101 -102 0
-101 -103 0
-101 -104 0
-102 -103 0
-102 -104 0
-103 -104 0
105 106 107 108 0
-105 -106 0
-105 -107 0
-105 -108 0
-106 -107 0
-106 -108 0
-107 -108 0
109 110 111 112 0
-109 -110 0
-109 -111 0
-109 -112 0
-110 -111 0
-110 -112 0
-111 -112 0
113 114 115 116 0
-113 -114 0
-113 -115 0
-113 -116 0
-114 -115 0
-114 -116 0
-115 -116 0
117 118 119 120 0
-117 -118 0
-117 -119 0
-117 -120 0
-118 -119 0
-118 -120 0
-119 -120 0
121 122 123 124 0
-121 -122 0
-121 -123 0
-121 -124 0
-122 -123 0
-122 -124 0
-123 -124 0
125 126 127 128 0
-125 -126 0
-125 -127 0
-125 -128 0
-126 -127 0
-126 -128 0
-127 -128 0
129 130 131 132 0
-129 -130 0
-129 -131 0
-129 -132 0
-130 -131 0
-130 -132 0
-131 -132 0
133 134 135 136 0
-133 -134 0
-133 -135 0
-133 -136 0
-134 -135 0
-134 -136 0
-135 -136 0
137 138 139 140 0
-137 -138 0
-137 -139 0
-137 -140 0
-138 -139 0
-138 -140 0
-139 -140 0
141 142 143 144 0
-141 -142 0
-141 -143 0
-141 -144 0
-142 -143 0
-142 -144 0
-143 -144 0
145 146 147 148 0
-145 -146 0
-145 -147 0
-145 -148 0
-146 -147 0
-146 -148 0
-147 -148 0
149 150 151 152 0
-149 -150 0
-149 -151 0
-149 -152 0
-150 -151 0
-150 -152 0
-151 -152 0
153 154 155 156 0
-153 -154 0
-153 -155 0
-153 -156 0
-154 -155 0
-154 -156 0
-155 -156 0
157 158 159 160 0
-157 -158 0
-157 -159 0
-157 -160 0
-158 -159 0
-158 -160 0
-159 -160 0
161 162 163 164 0
-161 -162 0
-161 -163 0
-161 -164 0
-162 -163 0
-162 -164 0
-163 -164 0
165 166 167 168 0
-165 -166 0
-165 -167 0
-165 -168 0
-166 -167 0
-166 -168 0
-167 -168 0
169 170 171 172 0
-169 -170 0
-169 -171 0
-169 -172 0
-170 -171 0
-170 -172 0
-171 -172 0
173 174 175 176 0
-173 -174 0
-173 -175 0
-173 -176 0
-174 -175 0
-174 -176 0
-175 -176 0
177 178 179 180 0
-177 -178 0
-177 -179 0
-177 -180 0
-178 -179 0
-178 -180 0
-179 -180 0
181 182 183 184 0
-181 -182 0
-181 -183 0
-181 -184 0
-182 -183 0
-182 -184 0
-183 -184 0
185 186 187 188 0
-185 -186 0
-185 -187 0
-185 -188 0
-186 -187 0
-186 -188 0
-187 -188 0
-1 -5 0
-2 -6 0
-3 -7 0
-4 -8 0
-5 -9 0
-6 -10 0
-7 -11 0
-8 -12 0
-5 -17 0
-6 -18 0
-7 -19 0
-8 -20 0
-9 -13 0
-10 -14 0
-11 -15 0
-12 -16 0
-9 -17 0
-10 -18 0
-11 -19 0
-12 -20 0
-13 -17 0
-14 -18 0
-15 -19 0
-16 -20 0
-13 -21 0
-14 -22 0
-15 -23 0
-16 -24 0
-13 -25 0
-14 -26 0
-15 -27 0
-16 -28 0
-17 -21 0
-18 -22 0
-19 -23 0
-20 -24 0
-21 -25 0
-22 -26 0
-23 -27 0
-24 -28 0
-21 -57 0
-22 -58 0
-23 -59 0
-24 -60 0
-25 -29 0
-26 -30 0
-27 -31 0
-28 -32 0
-25 -33 0
-26 -34 0
-27 -35 0
-28 -36 0
-25 -37 0
-26 -38 0
-27 -39 0
-28 -40 0
-25 -57 0
-26 -58 0
-27 -59 0
-28 -60 0
-29 -33 0
-30 -34 0
-31 -35 0
-32 -36 0
-29 -41 0
-30 -42 0
-31 -43 0
-32 -44 0
-29 -45 0
-30 -46 0
-31 -47 0
-32 -48 0
-33 -37 0
-34 -38 0
-35 -39 0
-36 -40 0
-33 -41 0
-34 -42 0
-35 -43 0
-36 -44 0
-37 -41 0
-38 -42 0
-39 -43 0
-40 -44 0
-37 -57 0
-38 -58 0
-39 -59 0
-40 -60 0
-37 -77 0
-38 -78 0
-39 -79 0
-40 -80 0
-41 -45 0
-42 -46 0
-43 -47 0
-44 -48 0
-41 -49 0
-42 -50 0
-43 -51 0
-44 -52 0
-41 -77 0
-42 -78 0
-43 -79 0
-44 -80 0
-41 -73 0
-42 -74 0
-43 -75 0
-44 -76 0
-45 -49 0
-46 -50 0
-47 -51 0
-48 -52 0
-45 -53 0
-46 -54 0
-47 -55 0
-48 -56 0
-49 -53 0
-50 -54 0
-51 -55 0
-52 -56 0
-49 -73 0
-50 -74 0
-51 -75 0
-52 -76 0
-53 -73 0
-54 -74 0
-55 -75 0
-56 -76 0
-53 -85 0
-54 -86 0
-55 -87 0
-56 -88 0
-57 -61 0
-58 -62 0
-59 -63 0
-60 -64 0
-57 -77 0
-58 -78 0
-59 -79 0
-60 -80 0
-61 -65 0
-62 -66 0
-63 -67 0
-64 -68 0
-61 -77 0
-62 -78 0
-63 -79 0
-64 -80 0
-61 -81 0
-62 -82 0
-63 -83 0
-64 -84 0
-65 -69 0
-66 -70 0
-67 -71 0
-68 -72 0
-65 -81 0
-66 -82 0
-67 -83 0
-68 -84 0
-69 -81 0
-70 -82 0
-71 -83 0
-72 -84 0
-69 -97 0
-70 -98 0
-71 -99 0
-72 -100 0
-69 -101 0
-70 -102 0
-71 -103 0
-72 -104 0
-73 -77 0
-74 -78 0
-75 -79 0
-76 -80 0
-73 -85 0
-74 -86 0
-75 -87 0
-76 -88 0
-77 -81 0
-78 -82 0
-79 -83 0
-80 -84 0
-77 -85 0
-78 -86 0
-79 -87 0
-80 -88 0
-77 -89 0
-78 -90 0
-79 -91 0
-80 -92 0
-81 -89 0
-82 -90 0
-83 -91 0
-84 -92 0
-81 -93 0
-82 -94 0
-83 -95 0
-84 -96 0
-81 -97 0
-82 -98 0
-83 -99 0
-84 -100 0
-85 -89 0
-86 -90 0
-87 -91 0
-88 -92 0
-89 -93 0
-90 -94 0
-91 -95 0
-92 -96 0
-93 -97 0
-94 -98 0
-95 -99 0
-96 -100 0
-93 -101 0
-94 -102 0
-95 -103 0
-96 -104 0
-93 -113 0
-94 -114 0
-95 -115 0
-96 -116 0
-93 -117 0
-94 -118 0
-95 -119 0
-96 -120 0
-97 -101 0
-98 -102 0
-99 -103 0
-100 -104 0
-101 -105 0
-102 -106 0
-103 -107 0
-104 -108 0
-101 -109 0
-102 -110 0
-103 -111 0
-104 -112 0
-101 -113 0
-102 -114 0
-103 -115 0
-104 -116 0
-105 -109 0
-106 -110 0
-107 -111 0
-108 -112 0
-105 -113 0
-106 -114 0
-107 -115 0
-108 -116 0
-105 -117 0
-106 -118 0
-107 -119 0
-108 -120 0
-109 -121 0
-110 -122 0
-111 -123 0
-112 -124 0
-109 -129 0
-110 -130 0
-111 -131 0
-112 -132 0
-109 -141 0
-110 -142 0
-111 -143 0
-112 -144 0
-113 -117 0
-114 -118 0
-115 -119 0
-116 -120 0
-121 -125 0
-122 -126 0
-123 -127 0
-124 -128 0
-121 -129 0
-122 -130 0
-123 -131 0
-124 -132 0
-121 -133 0
-122 -134 0
-123 -135 0
-124 -136 0
-125 -133 0
-126 -134 0
-127 -135 0
-128 -136 0
-125 -137 0
-126 -138 0
-127 -139 0
-128 -140 0
-129 -133 0
-130 -134 0
-131 -135 0
-132 -136 0
-129 -145 0
-130 -146 0
-131 -147 0
-132 -148 0
-133 -137 0
-134 -138 0
-135 -139 0
-136 -140 0
-133 -149 0
-134 -150 0
-135 -151 0
-136 -152 0
-137 -157 0
-138 -158 0
-139 -159 0
-140 -160 0
-141 -145 0
-142 -146 0
-143 -147 0
-144 -148 0
-141 -149 0
-142 -150 0
-143 -151 0
-144 -152 0
-141 -153 0
-142 -154 0
-143 -155 0
-144 -156 0
-145 -149 0
-146 -150 0
-147 -151 0
-148 -152 0
-149 -153 0
-150 -154 0
-151 -155 0
-152 -156 0
-157 -161 0
-158 -162 0
-159 -163 0
-160 -164 0
-157 -169 0
-158 -170 0
-159 -171 0
-160 -172 0
-157 -173 0
-158 -174 0
-159 -175 0
-160 -176 0
-161 -165 0
-162 -166 0
-163 -167 0
-164 -168 0
-169 -173 0
-170 -174 0
-171 -175 0
-172 -176 0
-169 -177 0
-170 -178 0
-171 -179 0
-172 -180 0
-169 -181 0
-170 -182 0
-171 -183 0
-172 -184 0
-173 -177 0
-174 -178 0
-175 -179 0
-176 -180 0
-177 -181 0
-178 -182 0
-179 -183 0
-180 -184 0
